c width = 2, time = 0.000020
s td 13 3 15
b 1 3 4 5
b 2 3 5 6
b 3 3 6 8
b 4 3 8 9
b 5 3 9 10
b 6 3 10 11
b 7 3 11 12
b 8 3 12 13
b 9 3 13 14
b 10 3 14 15
b 11 8 2
b 12 2 1
b 13 6 7
1 2
2 3
3 4
4 5
5 6
6 7
7 8
8 9
9 10
3 11
11 12
2 13
